Route #1: 212 8 6 210 19 12 11 199 200 16 114 41 163 18 149 159 5 81
Route #2: 211 170 190 189 20 24 21 165 164 172 50 54 53 154 155 9 92 126 125 156 209 206 173 203
Route #3: 58 77 95 98 99 122 120 128 141 106 60 136 153 61 198 202 29 38 17 7
Route #4: 144 146 108 142 166 89 178 179 79 183 90 181 131 152 177 161 180 196
Route #5: 13 10 22 14 86 2 197 117 187 150 186 185 132 130 100 85 194 43 184 160 139 3 40 115
Route #6: 135 171 51 176 35 42 167 168 134 147 101 127 116 118 157 169 140 151 123 105 87 74 73
Route #7: 133 80 113 103 102 104 84 82 119 111 129 110 148 109 97 124 63 72 23 25 32
Route #8: 158 207 28 47 37 57 62 69 67 34 55 33 188 36 39 121 93 56 59 49 46 44 30 205
Route #9: 182 94 26 204 4 15 195 174 201 65 107 48 138 191 31 1 112 91 208
Route #10: 64 70 88 76 75 96 52 137 71 162 78 145 27 45 83 175 143 66 68 193 192
Cost 81786
Time 192.537
